c WARNING: for repeatability, setting FPU to use double precision
d VARIABLES            59274        
d CONSTRAINTS          257719       
c ============================[ Problem Statistics ]=============================
c |                                                                             |
c |  Number of variables:         59274                                         |
c |  Number of clauses:          257719                                         |
c |  Parse time:                   0.04 s                                       |
c |                                                                             |
c ============================[ Search Statistics ]==============================
c | Conflicts |          ORIGINAL         |          LEARNT          | Progress |
c |           |    Vars  Clauses Literals |    Limit  Clauses Lit/Cl |          |
c ===============================================================================
c |       100 |   48707   227819   553202 |    83533      100     22 | 17.827 % |
c |       250 |   48707   227819   553202 |    91886      250     31 | 17.827 % |
c |       475 |   48707   227819   553202 |   101075      475     41 | 17.827 % |
c |       812 |   48707   227819   553202 |   111183      812     47 | 17.827 % |
c |      1318 |   48707   227819   553202 |   122301     1318     66 | 17.827 % |
c |      2077 |   48707   227819   553202 |   134531     2077     59 | 17.827 % |
c |      3216 |   48707   227819   553202 |   147984     3216     88 | 17.827 % |
c |      4924 |   48707   227819   553202 |   162783     4924     85 | 17.827 % |
c |      7486 |   48707   227819   553202 |   179061     7486     84 | 17.827 % |
c |     11330 |   48707   227819   553202 |   196967    11330     89 | 17.827 % |
c |     17096 |   48707   227819   553202 |   216664    17096    113 | 17.827 % |
c |     25745 |   48707   227819   553202 |   238331    25745    135 | 17.827 % |
c |     38719 |   48707   227819   553202 |   262164    38719    141 | 17.827 % |
c |     58180 |   48707   227819   553202 |   288380    58180    133 | 17.827 % |
c |     87372 |   48707   227819   553202 |   317218    87372    137 | 17.827 % |
c |    131161 |   48707   227819   553202 |   348940   131161    157 | 17.827 % |
c |    196845 |   48707   227819   553202 |   383834   196845    151 | 17.827 % |
c |    295371 |   48707   227819   553202 |   422218   295371    157 | 17.827 % |
c |    443160 |   48707   227819   553202 |   464440    24088     82 | 17.827 % |
c |    664843 |   48707   227819   553202 |   510884   245771    110 | 17.827 % |
c |    997368 |   48707   227819   553202 |   561972    68256    262 | 17.827 % |
c |   1496156 |   48707   227819   553202 |   618169   567044    210 | 17.827 % |
c |   2244338 |   48707   227819   553202 |   679986    80242    331 | 17.827 % |
c |   3366612 |   48707   227819   553202 |   747985   542976    205 | 17.827 % |
c ===============================================================================
c restarts              : 6142
c conflicts             : 3560983        (1986 /sec)
c decisions             : 9344215        (0.00 % random) (5213 /sec)
c propagations          : 3184066875     (1776220 /sec)
c conflict literals     : 756968571      (25.42 % deleted)
d RESTARTS             6142
d FAILURES             3560983      
d NODES                9344215      
d BACKTRACKS           9344215      
d PROPAGATIONS         3184066875   
d NOGOODSIZE           212.57 
d MEMORY               1037.00 
d TIME                 1792.61 

s UNKNOWN
